
******************************************************************************
This program contains Ipopt, a library for large-scale nonlinear optimization.
 Ipopt is released as open source code under the Eclipse Public License (EPL).
         For more information visit http://projects.coin-or.org/Ipopt

This version of Ipopt was compiled from source code available at
    https://github.com/IDAES/Ipopt as part of the Institute for the Design of
    Advanced Energy Systems Process Systems Engineering Framework (IDAES PSE
    Framework) Copyright (c) 2018-2019. See https://github.com/IDAES/idaes-pse.

This version of Ipopt was compiled using HSL, a collection of Fortran codes
    for large-scale scientific computation.  All technical papers, sales and
    publicity material resulting from use of the HSL codes within IPOPT must
    contain the following acknowledgement:
        HSL, a collection of Fortran codes for large-scale scientific
        computation. See http://www.hsl.rl.ac.uk.
******************************************************************************

This is Ipopt version 3.13.2, running with linear solver ma27.

Number of nonzeros in equality constraint Jacobian...:      808
Number of nonzeros in inequality constraint Jacobian.:        0
Number of nonzeros in Lagrangian Hessian.............:      702

Total number of variables............................:      351
                     variables with only lower bounds:      108
                variables with lower and upper bounds:      189
                     variables with only upper bounds:        0
Total number of equality constraints.................:      350
Total number of inequality constraints...............:        0
        inequality constraints with only lower bounds:        0
   inequality constraints with lower and upper bounds:        0
        inequality constraints with only upper bounds:        0

iter    objective    inf_pr   inf_du lg(mu)  ||d||  lg(rg) alpha_du alpha_pr  ls
   0  0.0000000e+00 7.88e-01 1.78e-15  -1.0 0.00e+00    -  0.00e+00 0.00e+00   0
   1  8.3047428e-01 1.85e-01 3.01e+04  -1.0 6.40e+04    -  8.99e-01 9.90e-01h  1
   2  9.0460505e-01 1.25e-01 2.28e+04  -1.0 2.05e+04    -  3.59e-01 4.95e-01h  2
   3  9.2106066e-01 1.11e-01 1.90e+04  -1.0 1.80e+04    -  8.15e-01 1.24e-01h  4
   4  9.2305175e-01 1.04e-01 1.57e+04  -1.0 1.47e+03  -4.0 9.88e-01 6.19e-02h  5
   5  9.2328610e-01 1.03e-01 1.33e+04  -1.0 1.39e+03  -4.5 9.90e-01 7.73e-03h  8
   6  9.2340340e-01 1.03e-01 1.08e+04  -1.0 1.38e+03  -5.0 9.90e-01 3.87e-03h  9
   7  9.2340527e-01 1.03e-01 1.04e+04  -1.0 1.39e+03  -5.4 9.91e-01 6.04e-05h 15
   8  9.2340578e-01 1.03e-01 1.28e+04  -1.0 1.45e+03  -5.9 1.00e+00 1.51e-05h 17
   9  9.6451053e-01 2.31e+00 7.36e+03  -1.0 2.17e+03  -6.4 9.90e-01 9.90e-01s 22
iter    objective    inf_pr   inf_du lg(mu)  ||d||  lg(rg) alpha_du alpha_pr  ls
  10  9.6667518e-01 4.78e-01 5.50e+02  -1.0 3.00e+02  -6.9 9.90e-01 9.90e-01s 22
  11  9.6662284e-01 3.79e-02 2.44e+07  -1.0 1.53e+01  -7.3 1.00e+00 0.00e+00S 22
  12  9.6638564e-01 6.31e-04 2.46e+07  -1.0 3.82e+01  -7.8 1.00e+00 9.90e-01h  1
  13  9.3583212e-01 1.95e-04 2.44e+09  -1.0 5.55e+03    -  1.00e+00 9.90e-01H  1
  14  9.3765527e-01 1.65e-06 2.44e+11  -1.0 3.72e+02    -  1.00e+00 9.90e-01h  1
In iteration 14, 27 Slacks too small, adjusting variable bounds
  15  9.3766519e-01 1.68e-08 2.44e+13  -1.0 2.04e+00    -  1.00e+00 9.90e-01h  1
  16  9.3766530e-01 3.93e-13 4.69e-02  -1.0 2.08e-02    -  1.00e+00 1.00e+00h  1
  17  9.3760579e-01 6.00e-09 2.45e+13  -9.0 1.22e+04    -  9.85e-01 9.77e-04f 11
  18  9.3753095e-01 1.55e-08 2.48e+13  -9.0 1.54e+04    -  9.99e-01 9.77e-04f 11
  19  9.3748949e-01 1.84e-08 2.48e+13  -9.0 1.70e+04    -  1.00e+00 4.88e-04f 12
iter    objective    inf_pr   inf_du lg(mu)  ||d||  lg(rg) alpha_du alpha_pr  ls
  20  9.3746754e-01 1.93e-08 2.48e+13  -9.0 1.80e+04    -  1.00e+00 2.44e-04f 13
  21  9.3744477e-01 2.01e-08 2.48e+13  -9.0 1.87e+04    -  1.00e+00 2.44e-04f 13
  22  8.8801954e-01 4.37e-02 1.08e+01  -9.0 1.92e+04    -  1.00e+00 1.00e+00f  1
  23  8.8784352e-01 7.19e-04 8.42e-02  -9.0 1.26e+03    -  1.00e+00 1.00e+00h  1
  24  8.8779809e-01 4.48e-05 4.84e-03  -9.0 5.79e+02    -  9.01e-01 1.00e+00h  1
  25  8.8779792e-01 6.79e-08 8.58e-06  -9.0 1.33e+01    -  1.00e+00 1.00e+00h  1
  26  8.8779792e-01 4.15e-13 2.91e-11  -9.0 3.98e-03    -  1.00e+00 1.00e+00h  1

Number of Iterations....: 26

                                   (scaled)                 (unscaled)
Objective...............:   8.8779791923084328e-01    8.8779791923084328e-01
Dual infeasibility......:   2.9103830456733704e-11    2.9103830456733704e-11
Constraint violation....:   4.1500136660488351e-13    4.1500136660488351e-13
Complementarity.........:   9.0909090909090931e-10    9.0909090909090931e-10
Overall NLP error.......:   7.3106557943523023e-12    9.0909090909090931e-10


Number of objective function evaluations             = 179
Number of objective gradient evaluations             = 27
Number of equality constraint evaluations            = 179
Number of inequality constraint evaluations          = 0
Number of equality constraint Jacobian evaluations   = 27
Number of inequality constraint Jacobian evaluations = 0
Number of Lagrangian Hessian evaluations             = 26
Total CPU secs in IPOPT (w/o function evaluations)   =      0.055
Total CPU secs in NLP function evaluations           =      1.197

EXIT: Optimal Solution Found.
